106
124
189
108
13
110
103
206
52
67
80
89
96
16
23
13
52
15
51
14
50
32
14
14
70
71
34
15
15
91
138
92
82
33
48
66
32
13
53
15
34
16
54
71
95
13
15
62
96
17
50
73
16
14
57
14
15
92
27
88
51
12
35
32
34
39
108
11
32
30
15
14
34
53
53
14
14
14
15
31
170
185
27
15
16
53
40
27
27
34
126
15
52
109
31
33
70
15
15
55
91
71
31
12
34
15
71
32
53
135
15
15
57
54
21
15
71
